RT is False
Default write of storage_offers_DA.csv just to have a file (but constraint should be inactive)
Reading model...
...model read.
creating competitive generators file...
...competitive generators recorded.
Loading data...
.. day-ahead data with real-time VRE data read.
Compiling instance...
...instance created.
Creating Offer Mitigation (model will solve as dispatch if TRUE)...
NOTE: storage offers will not be mitigated
...storage offer mitigation file created
Converting model to MPEC...
...converted
NOTE: initial MIP solve with only storage competitive to get feasible solution
Solving...

Welcome to IBM(R) ILOG(R) CPLEX(R) Interactive Optimizer 12.9.0.0
  with Simplex, Mixed Integer & Barrier Optimizers
5725-A06 5725-A29 5724-Y48 5724-Y49 5724-Y54 5724-Y55 5655-Y21
Copyright IBM Corp. 1988, 2019.  All Rights Reserved.

Type 'help' for a list of available commands.
Type 'help' followed by a command name for more
information on commands.

CPLEX> Logfile 'cplex.log' closed.
Logfile 'C:\Users\llavin\Desktop\test826\logs\tmp666orwe6.cplex.log' open.
CPLEX> New value for parallel optimization mode: -1
CPLEX> New value for mixed integer optimality gap tolerance: 2e-05
CPLEX> New value for integrality tolerance: 1e-12
CPLEX> New value for deterministic time limit in ticks: 265000
CPLEX> Problem 'C:\Users\llavin\Desktop\test826\logs\tmp34mg69c_.pyomo.lp' read.
Read time = 0.20 sec. (13.64 ticks)
CPLEX> Problem name         : C:\Users\llavin\Desktop\test826\logs\tmp34mg69c_.pyomo.lp
Objective sense      : Maximize
Variables            :   53815  [Nneg: 1,  Box: 22002,  Free: 4464,
                                 Binary: 27348]
Objective nonzeros   :    8980
Linear constraints   :  123235  [Less: 41356,  Greater: 59114,  Equal: 22765]
  Nonzeros           :  292605
  RHS nonzeros       :   67515

Variables            : Min LB: -5000.000        Max UB: 1000000.       
Objective nonzeros   : Min   : 0.1750000        Max   : 772.4167       
Linear constraints   :
  Nonzeros           : Min   : 0.1750000        Max   : 1000000.       
  RHS nonzeros       : Min   : 0.001000000      Max   : 1000000.       
CPLEX> CPXPARAM_Parallel                                -1
CPXPARAM_DetTimeLimit                            265000
CPXPARAM_MIP_Tolerances_MIPGap                   2.0000000000000002e-05
CPXPARAM_MIP_Tolerances_Integrality              9.9999999999999998e-13
Tried aggregator 3 times.
MIP Presolve eliminated 88702 rows and 18982 columns.
MIP Presolve added 3402 rows and 0 columns.
MIP Presolve modified 24898 coefficients.
Aggregator did 13017 substitutions.
Reduced MIP has 24918 rows, 21260 columns, and 71279 nonzeros.
Reduced MIP has 8398 binaries, 0 generals, 0 SOSs, and 0 indicators.
Presolve time = 0.25 sec. (173.08 ticks)
Probing fixed 397 vars, tightened 3897 bounds.
Probing time = 0.08 sec. (19.06 ticks)
Tried aggregator 2 times.
MIP Presolve eliminated 893 rows and 795 columns.
MIP Presolve modified 3032 coefficients.
Aggregator did 25 substitutions.
Reduced MIP has 24000 rows, 20440 columns, and 68618 nonzeros.
Reduced MIP has 8001 binaries, 0 generals, 0 SOSs, and 0 indicators.
Presolve time = 0.09 sec. (89.26 ticks)
Probing fixed 0 vars, tightened 423 bounds.
Probing time = 0.14 sec. (22.90 ticks)
Clique table members: 45097.
MIP emphasis: balance optimality and feasibility.
MIP search method: dynamic search.
Parallel mode: opportunistic, using up to 32 threads.
Root relaxation solution time = 0.38 sec. (629.27 ticks)

        Nodes                                         Cuts/
   Node  Left     Objective  IInf  Best Integer    Best Bound    ItCnt     Gap

      0     0     3122.4671   149                   3122.4671     5575         
      0     0     3122.4671     7                    Cuts: 17     5588         
      0     0     3122.4671     8                     Cuts: 8     5593         
      0     0     3120.8694     8                     Cuts: 3     5597         
      0     0     3120.8694     8                     Cuts: 7     5599         
      0    10    infeasible                         Covers: 1     5629         
Elapsed time = 4.27 sec. (2367.61 ticks, tree = 0.02 MB, solutions = 0)
*     3+   17                         3081.8167     3113.1266             1.02%
    148    12     3102.6612     5     3086.7959     3102.6612     5921    0.51%

Clique cuts applied:  1
Cover cuts applied:  5
Implied bound cuts applied:  1
Flow cuts applied:  15
Zero-half cuts applied:  1
Gomory fractional cuts applied:  4

Root node processing (before b&c):
  Real time             =    3.36 sec. (2363.30 ticks)
Parallel b&c, 32 threads:
  Real time             =    2.30 sec. (326.58 ticks)
  Sync time (average)   =    1.29 sec.
  Wait time (average)   =    0.00 sec.
                          ------------
Total (root+branch&cut) =    5.66 sec. (2689.88 ticks)

Solution pool: 4 solutions saved.

MIP - Integer optimal solution:  Objective =  3.0867958847e+03
Solution time =    5.67 sec.  Iterations = 6009  Nodes = 161
Deterministic time = 2690.03 ticks  (474.26 ticks/sec)

CPLEX> Incumbent solution written to file 'C:\Users\llavin\Desktop\test826\logs\tmpgigb3yd1.cplex.sol'.
CPLEX> NOTE: no warmstart specified for MIP iteration, default behavior is true
NOTE: resolving with all competitive generators using storage-only solution to warmstart
Solving...

Welcome to IBM(R) ILOG(R) CPLEX(R) Interactive Optimizer 12.9.0.0
  with Simplex, Mixed Integer & Barrier Optimizers
5725-A06 5725-A29 5724-Y48 5724-Y49 5724-Y54 5724-Y55 5655-Y21
Copyright IBM Corp. 1988, 2019.  All Rights Reserved.

Type 'help' for a list of available commands.
Type 'help' followed by a command name for more
information on commands.

CPLEX> Logfile 'cplex.log' closed.
Logfile 'C:\Users\llavin\Desktop\test826\logs\tmpscsfdj0f.cplex.log' open.
CPLEX> New value for parallel optimization mode: -1
CPLEX> New value for mixed integer optimality gap tolerance: 2e-05
CPLEX> New value for integrality tolerance: 1e-12
CPLEX> New value for deterministic time limit in ticks: 265000
CPLEX> Problem 'C:\Users\llavin\Desktop\test826\logs\tmp0prx_u3m.pyomo.lp' read.
Read time = 0.20 sec. (13.66 ticks)
CPLEX> MIP start file 'C:\Users\llavin\Desktop\test826\logs\tmpbjo7z9gy.cplex.mst' read.
CPLEX> Problem name         : C:\Users\llavin\Desktop\test826\logs\tmp0prx_u3m.pyomo.lp
Objective sense      : Maximize
Variables            :   54535  [Nneg: 1,  Box: 22722,  Free: 4464,
                                 Binary: 27348]
Objective nonzeros   :    9676
Linear constraints   :  123235  [Less: 41356,  Greater: 59114,  Equal: 22765]
  Nonzeros           :  292605
  RHS nonzeros       :   67515

Variables            : Min LB: -5000.000        Max UB: 1000000.       
Objective nonzeros   : Min   : 0.1750000        Max   : 760.8083       
Linear constraints   :
  Nonzeros           : Min   : 0.1750000        Max   : 1000000.       
  RHS nonzeros       : Min   : 0.001000000      Max   : 1000000.       
CPLEX> CPXPARAM_Parallel                                -1
CPXPARAM_DetTimeLimit                            265000
CPXPARAM_MIP_Tolerances_MIPGap                   2.0000000000000002e-05
CPXPARAM_MIP_Tolerances_Integrality              9.9999999999999998e-13
Warning:  No solution found from 1 MIP starts.
Retaining values of one MIP start for possible repair.
Tried aggregator 3 times.
MIP Presolve eliminated 88702 rows and 19702 columns.
MIP Presolve added 3402 rows and 0 columns.
MIP Presolve modified 24898 coefficients.
Aggregator did 13017 substitutions.
Reduced MIP has 24918 rows, 21260 columns, and 71279 nonzeros.
Reduced MIP has 8398 binaries, 0 generals, 0 SOSs, and 0 indicators.
Presolve time = 0.27 sec. (173.44 ticks)
Probing fixed 397 vars, tightened 3897 bounds.
Probing time = 0.05 sec. (19.06 ticks)
Tried aggregator 2 times.
MIP Presolve eliminated 893 rows and 795 columns.
MIP Presolve modified 3032 coefficients.
Aggregator did 25 substitutions.
Reduced MIP has 24000 rows, 20440 columns, and 68618 nonzeros.
Reduced MIP has 8001 binaries, 0 generals, 0 SOSs, and 0 indicators.
Presolve time = 0.11 sec. (89.27 ticks)
Probing fixed 0 vars, tightened 423 bounds.
Probing time = 0.14 sec. (22.90 ticks)
Clique table members: 45097.
MIP emphasis: balance optimality and feasibility.
MIP search method: dynamic search.
Parallel mode: opportunistic, using up to 32 threads.
Root relaxation solution time = 0.41 sec. (654.75 ticks)

        Nodes                                         Cuts/
   Node  Left     Objective  IInf  Best Integer    Best Bound    ItCnt     Gap

      0     0    66227.5168   257                  66227.5168     5865         
      0     0    64680.6656   106                   Cuts: 100     5973         
      0     0    64212.1737    97                    Cuts: 46     6042         
      0     0    64091.8909   102                    Cuts: 31     6073         
      0     0    64072.9267   106                     Cuts: 6     6098         
      0     0    64067.5514   102                    Cuts: 12     6108         
      0     0    64067.5514   102                 Flowcuts: 6     6109         
Repair heuristic found nothing.
      0     4    61477.9522    69                     Cuts: 8     6155         
Elapsed time = 6.59 sec. (3588.60 ticks, tree = 0.02 MB, solutions = 0)
    602   283    60035.2292    71                  62312.9294    10461         
    876   533     9476.6571    37                  62312.9294    19717         
   1506   842    -4404.6010    22                  62312.9294    27654         
   2218  1231    10831.0294    22                  62312.9294    36304         
   2758  1375    25260.3618    61                  62312.9294    43572         
   3365  1757  -653849.3585    52                  61874.7053    55330         
   3916  2132    41781.0363    52                  61874.7053    68871         
   4467  2329     7609.5745    10                  61406.4158    77206         
*  4726+ 1385                        11633.6766    61406.4158           427.83%
   7071  2229    24118.3977    41    11633.6766    60133.6921   145779  416.89%
Elapsed time = 22.75 sec. (6581.64 ticks, tree = 50.98 MB, solutions = 1)
*  8288+ 2134                        11676.8770    44663.4424           282.49%
   8288  2136    infeasible          11676.8770    11975.0588   181674    2.55%
*  8702    49      integral     0    11715.3777    11806.8597   182517    0.78%
   9393   215    11774.0846    21    11715.3777    11804.2704   183806    0.76%
  11370   652    11755.9915    27    11730.8062    11804.2704   186608    0.63%
  12056  1425    11766.4928    24    11730.8062    11800.0145   194389    0.59%
  13383  1425    11770.7214    31    11730.8062    11799.2912   198045    0.58%
  16112   884        cutoff          11730.8062    11738.5604   211609    0.07%
  18029    99    11736.4440    26    11730.8062    11738.5604   230946    0.07%

Cover cuts applied:  6
Implied bound cuts applied:  9
Flow cuts applied:  61
Mixed integer rounding cuts applied:  4
Gomory fractional cuts applied:  1

Root node processing (before b&c):
  Real time             =    4.88 sec. (3558.21 ticks)
Parallel b&c, 32 threads:
  Real time             =   54.88 sec. (13851.08 ticks)
  Sync time (average)   =    4.05 sec.
  Wait time (average)   =    0.20 sec.
                          ------------
Total (root+branch&cut) =   59.75 sec. (17409.29 ticks)

Solution pool: 23 solutions saved.

MIP - Integer optimal solution:  Objective =  1.1730806214e+04
Solution time =   59.77 sec.  Iterations = 237782  Nodes = 18454
Deterministic time = 17409.45 ticks  (291.30 ticks/sec)

CPLEX> Incumbent solution written to file 'C:\Users\llavin\Desktop\test826\logs\tmp3a72trqb.cplex.sol'.
CPLEX> Exporting results... 
